CUST NO.,LATITUDE,LONGITUDE,DEMAND,FROM TIME,TO TIME,SERVICE TIME
0,35.19807886,137.0112822,0,2000/1/1 9:00:00,2020/1/1 17:00:00,0
156,35.1968538,136.9608624,1,2000/1/1 9:00:00,2020/1/1 17:00:00,1
157,35.19665415,136.9598349,2,2000/1/1 9:00:00,2020/1/1 17:00:00,1